CMD:
./solvers/bin/cadical --plain --no-reduce -t 1600 ./data/cnfs//circular_pointer_top_w8_d16_e0/circular_pointer_top_w8_d16_e0.84.cnf

c --- [ banner ] -------------------------------------------------------------
c 
c CaDiCaL SAT Solver
c Copyright (c) 2016-2024
c A. Biere, M. Fleury, N. Froleyks, K. Fazekas, F. Pollitt, T. Faller
c JKU Linz, University of Freiburg, TU Wien
c 
c Version 2.1.3 5296d3d2a9bf48c154ab2acb5e44625776d821bf
c g++ (Gentoo 12.3.1_p20230526 p2) 12.3.1 20230526 -Wall -Wextra -O3 -DNDEBUG
c Sat Aug 9 07:26:21 PDT 2025 Linux cedar2.int.cedar.computecanada.ca 5.14.0-362.24.2.el9_3.x86_64 x86_64
c 
c --- [ limit ] --------------------------------------------------------------
c 
c setting time limit to 1600 seconds real time (due to '-t 1600')
c 
c --- [ parsing input ] ------------------------------------------------------
c 
c reading DIMACS file from './data/cnfs//circular_pointer_top_w8_d16_e0/circular_pointer_top_w8_d16_e0.84.cnf'
c opening file to read './data/cnfs//circular_pointer_top_w8_d16_e0/circular_pointer_top_w8_d16_e0.84.cnf'
c found 'p cnf 119002 351136' header
c parsed 351136 clauses in 0.06 seconds process time
c 
c --- [ options ] ------------------------------------------------------------
c 
c   --compact=false                (different from default 'true')
c   --decompose=false              (different from default 'true')
c   --deduplicate=false            (different from default 'true')
c   --elim=false                   (different from default 'true')
c   --probe=false                  (different from default 'true')
c   --reduce=false                 (different from default 'true')
c   --subsume=false                (different from default 'true')
c   --ternary=false                (different from default 'true')
c   --transred=false               (different from default 'true')
c   --vivify=false                 (different from default 'true')
c 
c --- [ solving ] ------------------------------------------------------------
c 
c time measured in process time since initialization
c 
c  seconds  reductions  redundant  irredundant
c         MB    restarts       trail       variables
c          level   conflicts       glue          remaining
c 
c *  0.06 58  0 0   0    0    0  0% 0 343645 113971 96%
c {  0.09 59  0 0   0    0    0  0% 0 343645 113971 96%
c i  0.13 60 1214 0   0  199  192 69% 2 343645 113963 96%
c i  0.14 60 1273 0   1  325  303 74% 2 343645 113955 96%
c i  0.14 60 1216 0   5  340  317 71% 2 343645 113849 96%
c i  0.14 60 1115 0   9  371  345 66% 2 343645 113806 96%
c i  0.16 60 1090 0  13  381  354 64% 2 343645 113717 96%
c i  0.25 60 898 0  42  514  468 57% 5 343645 113331 95%
c i  0.30 60 753 0  50  640  584 53% 5 343645 113236 95%
c i  0.30 60 750 0  50  642  585 53% 5 343645 113171 95%
c }  0.33 60 523 0  82 1000  923 42% 5 343645 113170 95%
c [  0.33 60  0 0  82 1000  923  0% 0 343645 113170 95%
c O  0.35 61 369 0  82 1002  925 48% 6 343645 113170 95%
c ]  0.89 61 319 0  83 3001 2708 53% 7 343645 113170 95%
c {  0.89 61 523 0  83 3001 2708 42% 5 343645 113170 95%
c F  0.89 61 518 0  83 3011 2718 42% 5 343645 113170 95%
c i  0.90 61 507 0  83 3036 2742 41% 5 343645 113167 95%
c i  0.90 61 505 0  83 3042 2747 41% 5 343645 113164 95%
c i  0.90 61 500 0  83 3055 2759 41% 5 343645 113125 95%
c i  0.90 61 499 0  83 3058 2761 41% 5 343645 113105 95%
c 
c  seconds   reductions  redundant  irredundant
c         MB     restarts       trail       variables
c           level   conflicts       glue          remaining
c 
c i  0.94 61 304 0 101 3978 3610 28% 4 343645 113098 95%
c i  0.94 61 285 0 101 4121 3737 27% 4 343645 113090 95%
c i  0.94 61 285 0 101 4124 3739 27% 4 343645 113081 95%
c i  0.94 61 273 0 101 4225 3829 26% 4 343645 113077 95%
c i  0.94 61 270 0 101 4249 3845 26% 4 343645 113065 95%
c i  0.94 61 270 0 101 4254 3847 26% 4 343645 113056 95%
c i  0.94 61 270 0 101 4256 3848 26% 4 343645 113026 95%
c i  0.95 61 266 0 101 4286 3870 25% 4 343645 113023 95%
c i  0.95 61 250 0 101 4443 4017 24% 4 343645 113009 95%
c i  0.95 61 250 0 101 4445 4018 24% 4 343645 113005 95%
c i  0.97 61 198 0 124 5314 4805 21% 4 343645 113000 95%
c i  0.97 61 197 0 124 5316 4806 21% 4 343645 112990 95%
c i  0.97 61 197 0 124 5318 4807 21% 4 343645 112983 95%
c i  0.97 61 197 0 124 5325 4812 21% 4 343645 112976 95%
c i  0.97 61 197 0 124 5331 4815 21% 4 343645 112964 95%
c i  0.97 61 197 0 124 5340 4821 21% 4 343645 112961 95%
c i  0.97 61 194 0 124 5405 4878 21% 4 343645 112958 95%
c i  0.97 61 194 0 124 5409 4880 21% 4 343645 112955 95%
c i  0.97 61 189 0 129 5513 4974 20% 4 343645 112945 95%
c i  0.97 61 186 0 129 5592 5038 20% 4 343645 112939 95%
c 
c  seconds   reductions  redundant  irredundant
c         MB     restarts       trail       variables
c           level   conflicts       glue          remaining
c 
c #  1.02 62 172 0 163 6013 5425 19% 4 343645 112939 95%
c i  1.04 62 162 0 186 6499 5881 19% 4 343645 112929 95%
c i  1.04 62 162 0 186 6512 5893 19% 4 343645 112926 95%
c }  1.07 62 159 0 201 7002 6345 19% 4 343645 112925 95%
... skipped 10947 lines ...
v -118533 -118534 -118535 118536 -118537 -118538 -118539 118540 -118541
v -118542 -118543 118544 -118545 -118546 -118547 118548 -118549 -118550
v -118551 118552 -118553 -118554 -118555 -118556 -118557 -118558 118559 118560
v -118561 -118562 -118563 118564 -118565 118566 -118567 -118568 118569 -118570
v 118571 -118572 -118573 118574 -118575 118576 -118577 -118578 118579 -118580
v 118581 118582 -118583 -118584 118585 -118586 -118587 -118588 -118589 -118590
v -118591 118592 -118593 -118594 -118595 -118596 -118597 -118598 118599
v -118600 -118601 -118602 -118603 -118604 -118605 118606 -118607 -118608
v -118609 -118610 -118611 -118612 118613 -118614 -118615 -118616 118617
v -118618 118619 -118620 -118621 -118622 -118623 118624 -118625 -118626
v -118627 118628 -118629 -118630 -118631 118632 -118633 -118634 -118635 118636
v -118637 -118638 -118639 118640 -118641 -118642 -118643 118644 -118645
v -118646 -118647 118648 -118649 -118650 -118651 118652 -118653 -118654
v -118655 118656 -118657 -118658 -118659 -118660 -118661 -118662 118663
v -118664 118665 -118666 118667 -118668 -118669 118670 -118671 -118672 -118673
v 118674 118675 -118676 118677 -118678 118679 -118680 118681 -118682 118683
v -118684 118685 -118686 118687 -118688 118689 -118690 118691 -118692 -118693
v 118694 -118695 -118696 -118697 -118698 -118699 118700 -118701 -118702
v -118703 118704 -118705 -118706 -118707 118708 -118709 -118710 -118711 118712
v -118713 -118714 -118715 118716 -118717 -118718 -118719 118720 -118721
v -118722 -118723 118724 -118725 -118726 -118727 118728 -118729 -118730
v -118731 -118732 -118733 -118734 118735 -118736 -118737 -118738 118739
v -118740 -118741 -118742 118743 -118744 -118745 -118746 118747 -118748
v -118749 -118750 118751 -118752 -118753 -118754 118755 -118756 -118757
v -118758 118759 -118760 -118761 -118762 118763 -118764 -118765 -118766
v -118767 118768 -118769 -118770 -118771 118772 -118773 -118774 -118775 118776
v -118777 -118778 -118779 118780 -118781 -118782 118783 -118784 118785 -118786
v -118787 118788 -118789 -118790 118791 -118792 118793 -118794 118795 -118796
v 118797 -118798 -118799 -118800 -118801 -118802 118803 -118804 -118805
v -118806 118807 -118808 -118809 118810 -118811 118812 -118813 118814 -118815
v 118816 -118817 -118818 118819 -118820 -118821 -118822 118823 -118824 -118825
v -118826 118827 -118828 -118829 -118830 118831 -118832 -118833 -118834
v -118835 -118836 118837 -118838 -118839 -118840 118841 -118842 -118843
v -118844 118845 -118846 -118847 -118848 118849 -118850 -118851 -118852 118853
v -118854 -118855 -118856 118857 -118858 -118859 118860 -118861 118862 -118863
v 118864 -118865 118866 -118867 -118868 -118869 -118870 118871 -118872 -118873
v -118874 118875 -118876 -118877 -118878 118879 -118880 -118881 118882 -118883
v 118884 -118885 -118886 118887 -118888 -118889 -118890 118891 -118892 -118893
v -118894 118895 -118896 -118897 -118898 118899 -118900 -118901 -118902 118903
v 118904 -118905 118906 -118907 -118908 -118909 118910 -118911 -118912 -118913
v 118914 -118915 -118916 -118917 118918 -118919 -118920 -118921 118922 -118923
v -118924 -118925 118926 -118927 -118928 -118929 118930 -118931 -118932
v -118933 118934 -118935 -118936 -118937 -118938 -118939 118940 -118941
v -118942 -118943 118944 -118945 -118946 -118947 118948 -118949 -118950
v -118951 118952 -118953 -118954 -118955 118956 -118957 -118958 -118959 118960
v -118961 -118962 -118963 118964 -118965 -118966 118967 -118968 118969 -118970
v -118971 -118972 -118973 118974 -118975 -118976 -118977 118978 -118979
v -118980 118981 -118982 118983 -118984 118985 -118986 118987 -118988 -118989
v 118990 -118991 -118992 118993 -118994 118995 -118996 118997 -118998 118999
v -119000 119001 -119002 0
c 
c --- [ run-time profiling ] -------------------------------------------------
c 
c process time taken by individual solving procedures
c (percentage relative to process time for solving)
c 
c        11.69  100.00% search
c         6.98   59.66% stable
c         4.40   37.64% unstable
c         0.29    2.44% walk
c         0.06    0.53% parse
c         0.03    0.26% lucky
c         0.00    0.00% simplify
c   =================================
c        11.69   99.41% solve
c 
c last line shows process time for solving
c (percentage relative to total process time)
c 
c --- [ statistics ] ---------------------------------------------------------
c 
c chronological:             20405        27.01 %  of conflicts
c conflicts:                 75536      6459.53    per second
c decisions:                287567     24591.56    per second
c fixed:                      7449         6.26 %  of all variables
c learned:                   73545        97.36 %  per conflict
c learned_lits:            4544841       100.00 %  learned literals
c minimized:                     0         0.00 %  learned literals
c shrunken:                1455861        32.03 %  learned literals
c minishrunken:             706977        15.56 %  learned literals
c otfs:                        473         0.63 %  of conflict
c propagations:          136403664        11.66 M  per second
c rephased:                     11      6866.91    interval
c restarts:                   2260        33.42    interval
c stabilizing:                   3        55.59 %  of conflicts
c subsumed:                   4753         1.14 %  of all clauses
c strengthened:                454         0.11 %  of all clauses
c walked:                        2     37768.00    interval
c 
c seconds are measured in process time for solving
c 
c --- [ resources ] ----------------------------------------------------------
c 
c total process time since initialization:        11.76    seconds
c total real time since initialization:           11.84    seconds
c maximum resident set size of process:           84.51    MB
c 
c --- [ shutting down ] ------------------------------------------------------
c 
c exit 10
